; PUSH cw_1 SWAP1 SWAP3 ADD => SWAP2 PUSH cw_1 ADD
(set-option :produce-proofs true)
; 
(set-info :status unknown)
(declare-fun storage_t ((_ BitVec 256) (_ BitVec 256) (_ BitVec 256) (_ BitVec 256) Int (_ BitVec 256)) (_ BitVec 256))
(declare-fun w_1 () (_ BitVec 256))
(declare-fun storage_s ((_ BitVec 256) (_ BitVec 256) (_ BitVec 256) (_ BitVec 256) Int (_ BitVec 256)) (_ BitVec 256))
(declare-fun exc_halt_t (Int) Bool)
(declare-fun exc_halt_s (Int) Bool)
(declare-fun stack_t ((_ BitVec 256) (_ BitVec 256) (_ BitVec 256) (_ BitVec 256) Int (_ BitVec 6)) (_ BitVec 256))
(declare-fun stack_s ((_ BitVec 256) (_ BitVec 256) (_ BitVec 256) (_ BitVec 256) Int (_ BitVec 6)) (_ BitVec 256))
(declare-fun sc_t (Int) (_ BitVec 6))
(declare-fun sc_s (Int) (_ BitVec 6))
(declare-fun used_gas_t ((_ BitVec 256) (_ BitVec 256) (_ BitVec 256) (_ BitVec 256) Int) Int)
(declare-fun used_gas_s ((_ BitVec 256) (_ BitVec 256) (_ BitVec 256) (_ BitVec 256) Int) Int)
(assert
 (exists ((x_0 (_ BitVec 256)) (x_1 (_ BitVec 256)) (x_2 (_ BitVec 256)) )(let (($x6445 (forall ((w (_ BitVec 256)) )(let ((?x7504 (storage_t x_0 x_1 x_2 w_1 3 w)))
 (let ((?x11303 (storage_s x_0 x_1 x_2 w_1 4 w)))
 (= ?x11303 ?x7504))))
 ))
 (let (($x3892 (exc_halt_t 3)))
 (let (($x64 (exc_halt_s 4)))
 (let (($x5423 (= $x64 $x3892)))
 (let (($x1159 (forall ((n (_ BitVec 6)) )(let ((?x3771 (stack_t x_0 x_1 x_2 w_1 3 n)))
 (let ((?x534 (stack_s x_0 x_1 x_2 w_1 4 n)))
 (let (($x4694 (= ?x534 ?x3771)))
 (or (bvsle (sc_t 3) n) $x4694)))))
 ))
 (let ((?x9893 (sc_t 3)))
 (let ((?x4305 (sc_s 4)))
 (let (($x6268 (= ?x4305 ?x9893)))
 (let ((?x3946 (used_gas_t x_0 x_1 x_2 w_1 0)))
 (let ((?x1909 (used_gas_s x_0 x_1 x_2 w_1 0)))
 (let (($x6502 (= ?x1909 ?x3946)))
 (let (($x2129 (forall ((w (_ BitVec 256)) )(let ((?x7754 (storage_t x_0 x_1 x_2 w_1 0 w)))
 (let ((?x8424 (storage_s x_0 x_1 x_2 w_1 0 w)))
 (= ?x8424 ?x7754))))
 ))
 (let (($x56 (exc_halt_t 0)))
 (let (($x57 (exc_halt_s 0)))
 (let (($x58 (= $x57 $x56)))
 (let (($x10421 (forall ((n (_ BitVec 6)) )(let ((?x643 (stack_t x_0 x_1 x_2 w_1 0 n)))
 (let ((?x325 (stack_s x_0 x_1 x_2 w_1 0 n)))
 (let (($x9420 (= ?x325 ?x643)))
 (let ((?x63 (sc_t 0)))
 (let (($x4861 (bvsle ?x63 n)))
 (or $x4861 $x9420)))))))
 ))
 (let ((?x63 (sc_t 0)))
 (let ((?x72 (sc_s 0)))
 (let (($x73 (= ?x72 ?x63)))
 (let (($x7783 (= $x3892 (or (exc_halt_t 2) (not (bvsle (_ bv0 6) (bvadd (_ bv62 6) (sc_t 2))))))))
 (let (($x6700 (forall ((w (_ BitVec 256)) )(let ((?x7749 (storage_t x_0 x_1 x_2 w_1 2 w)))
 (let ((?x7504 (storage_t x_0 x_1 x_2 w_1 3 w)))
 (= ?x7504 ?x7749))))
 ))
 (let (($x3373 (forall ((n (_ BitVec 6)) )(let ((?x1482 (stack_t x_0 x_1 x_2 w_1 2 n)))
 (let ((?x3771 (stack_t x_0 x_1 x_2 w_1 3 n)))
 (or (= ?x3771 ?x1482) (bvsle (bvadd (_ bv62 6) (sc_t 2)) n)))))
 ))
 (let (($x5823 (= (used_gas_t x_0 x_1 x_2 w_1 3) (+ 3 (used_gas_t x_0 x_1 x_2 w_1 2)))))
 (let ((?x10806 (bvadd (stack_t x_0 x_1 x_2 w_1 2 (bvadd (_ bv63 6) (sc_t 2))) (stack_t x_0 x_1 x_2 w_1 2 (bvadd (_ bv62 6) (sc_t 2))))))
 (let (($x1920 (exc_halt_t 1)))
 (let (($x8704 (or $x1920 (not (= ((_ extract 6 6) (bvadd (_ bv1 7) (concat (_ bv0 1) (sc_t 1)))) (_ bv0 1))))))
 (let (($x903 (exc_halt_t 2)))
 (let (($x2322 (forall ((w (_ BitVec 256)) )(let ((?x7156 (storage_t x_0 x_1 x_2 w_1 1 w)))
 (let ((?x7749 (storage_t x_0 x_1 x_2 w_1 2 w)))
 (= ?x7749 ?x7156))))
 ))
 (let (($x5819 (forall ((n (_ BitVec 6)) )(let ((?x1840 (stack_t x_0 x_1 x_2 w_1 1 n)))
 (let ((?x1482 (stack_t x_0 x_1 x_2 w_1 2 n)))
 (or (bvsle (sc_t 1) n) (= ?x1482 ?x1840)))))
 ))
 (let ((?x10861 (used_gas_t x_0 x_1 x_2 w_1 2)))
 (let (($x10213 (forall ((w (_ BitVec 256)) )(let ((?x7754 (storage_t x_0 x_1 x_2 w_1 0 w)))
 (let ((?x7156 (storage_t x_0 x_1 x_2 w_1 1 w)))
 (= ?x7156 ?x7754))))
 ))
 (let (($x2608 (forall ((n (_ BitVec 6)) )(let ((?x643 (stack_t x_0 x_1 x_2 w_1 0 n)))
 (let ((?x1840 (stack_t x_0 x_1 x_2 w_1 1 n)))
 (or (= ?x1840 ?x643) (bvsle (bvadd (_ bv61 6) (sc_t 0)) n)))))
 ))
 (let (($x10740 (= (stack_t x_0 x_1 x_2 w_1 1 (bvadd (_ bv62 6) (sc_t 1))) (stack_t x_0 x_1 x_2 w_1 0 (bvadd (_ bv62 6) ?x63)))))
 (let (($x9322 (= (stack_t x_0 x_1 x_2 w_1 1 (bvadd (_ bv61 6) (sc_t 1))) (stack_t x_0 x_1 x_2 w_1 0 (bvadd (_ bv63 6) ?x63)))))
 (let (($x5154 (= (stack_t x_0 x_1 x_2 w_1 1 (bvadd (_ bv63 6) (sc_t 1))) (stack_t x_0 x_1 x_2 w_1 0 (bvadd (_ bv61 6) ?x63)))))
 (let (($x4829 (= $x64 (or (exc_halt_s 3) (not (bvsle (_ bv0 6) (bvadd (_ bv62 6) (sc_s 3))))))))
 (let (($x9313 (forall ((w (_ BitVec 256)) )(let ((?x3704 (storage_s x_0 x_1 x_2 w_1 3 w)))
 (let ((?x11303 (storage_s x_0 x_1 x_2 w_1 4 w)))
 (= ?x11303 ?x3704))))
 ))
 (let (($x1887 (forall ((n (_ BitVec 6)) )(let ((?x275 (sc_s 3)))
 (let ((?x9858 (bvadd (_ bv62 6) ?x275)))
 (let (($x10835 (bvsle ?x9858 n)))
 (let ((?x6213 (stack_s x_0 x_1 x_2 w_1 3 n)))
 (let ((?x534 (stack_s x_0 x_1 x_2 w_1 4 n)))
 (or (= ?x534 ?x6213) $x10835)))))))
 ))
 (let (($x4290 (= (used_gas_s x_0 x_1 x_2 w_1 4) (+ 3 (used_gas_s x_0 x_1 x_2 w_1 3)))))
 (let ((?x275 (sc_s 3)))
 (let ((?x9858 (bvadd (_ bv62 6) ?x275)))
 (let ((?x10422 (stack_s x_0 x_1 x_2 w_1 3 ?x9858)))
 (let ((?x7846 (bvadd (_ bv63 6) ?x275)))
 (let ((?x29 (stack_s x_0 x_1 x_2 w_1 3 ?x7846)))
 (let (($x1842 (= (stack_s x_0 x_1 x_2 w_1 4 (bvadd (_ bv63 6) ?x4305)) (bvadd ?x29 ?x10422))))
 (let (($x292 (exc_halt_s 3)))
 (let (($x8661 (= $x292 (or (exc_halt_s 2) (not (bvsle (_ bv0 6) (bvadd (_ bv60 6) (sc_s 2))))))))
 (let (($x8496 (forall ((w (_ BitVec 256)) )(let ((?x824 (storage_s x_0 x_1 x_2 w_1 2 w)))
 (let ((?x3704 (storage_s x_0 x_1 x_2 w_1 3 w)))
 (= ?x3704 ?x824))))
 ))
 (let (($x4351 (forall ((n (_ BitVec 6)) )(let ((?x11587 (stack_s x_0 x_1 x_2 w_1 2 n)))
 (let ((?x6213 (stack_s x_0 x_1 x_2 w_1 3 n)))
 (or (= ?x6213 ?x11587) (bvsle (bvadd (_ bv60 6) (sc_s 2)) n)))))
 ))
 (let ((?x1576 (used_gas_s x_0 x_1 x_2 w_1 3)))
 (let ((?x5324 (stack_s x_0 x_1 x_2 w_1 2 (bvadd (_ bv62 6) (sc_s 2)))))
 (let (($x7904 (= (stack_s x_0 x_1 x_2 w_1 3 (bvadd (_ bv61 6) ?x275)) (stack_s x_0 x_1 x_2 w_1 2 (bvadd (_ bv61 6) (sc_s 2))))))
 (let ((?x7633 (stack_s x_0 x_1 x_2 w_1 2 (bvadd (_ bv63 6) (sc_s 2)))))
 (let (($x1178 (= ?x29 (stack_s x_0 x_1 x_2 w_1 2 (bvadd (_ bv60 6) (sc_s 2))))))
 (let (($x247 (exc_halt_s 2)))
 (let (($x9930 (= $x247 (or (exc_halt_s 1) (not (bvsle (_ bv0 6) (bvadd (_ bv62 6) (sc_s 1))))))))
 (let (($x1339 (forall ((w (_ BitVec 256)) )(let ((?x9111 (storage_s x_0 x_1 x_2 w_1 1 w)))
 (let ((?x824 (storage_s x_0 x_1 x_2 w_1 2 w)))
 (= ?x824 ?x9111))))
 ))
 (let (($x4166 (forall ((n (_ BitVec 6)) )(let ((?x10787 (stack_s x_0 x_1 x_2 w_1 1 n)))
 (let ((?x11587 (stack_s x_0 x_1 x_2 w_1 2 n)))
 (or (= ?x11587 ?x10787) (bvsle (bvadd (_ bv62 6) (sc_s 1)) n)))))
 ))
 (let ((?x2597 (used_gas_s x_0 x_1 x_2 w_1 2)))
 (let (($x6147 (= ?x5324 (stack_s x_0 x_1 x_2 w_1 1 (bvadd (_ bv63 6) (sc_s 1))))))
 (let (($x9549 (= ?x7633 (stack_s x_0 x_1 x_2 w_1 1 (bvadd (_ bv62 6) (sc_s 1))))))
 (let (($x189 (exc_halt_s 1)))
 (let (($x7022 (= $x189 (or $x57 (not (= ((_ extract 6 6) (bvadd (_ bv1 7) (concat (_ bv0 1) ?x72))) (_ bv0 1)))))))
 (let (($x7664 (forall ((w (_ BitVec 256)) )(let ((?x8424 (storage_s x_0 x_1 x_2 w_1 0 w)))
 (let ((?x9111 (storage_s x_0 x_1 x_2 w_1 1 w)))
 (= ?x9111 ?x8424))))
 ))
 (let (($x9029 (forall ((n (_ BitVec 6)) )(let ((?x325 (stack_s x_0 x_1 x_2 w_1 0 n)))
 (let ((?x10787 (stack_s x_0 x_1 x_2 w_1 1 n)))
 (or (= ?x10787 ?x325) (bvsle (sc_s 0) n)))))
 ))
 (let ((?x154 (sc_s 1)))
 (let (($x7777 (= ?x154 (bvadd (_ bv1 6) ?x72))))
 (let (($x6159 (forall ((w (_ BitVec 256)) )(let ((?x8424 (storage_s x_0 x_1 x_2 w_1 0 w)))
 (= ?x8424 (_ bv0 256))))
 ))
 (let (($x3709 (= ?x1909 0)))
 (let (($x5326 (not $x57)))
 (let (($x3689 (= (stack_s x_0 x_1 x_2 w_1 0 (_ bv2 6)) x_2)))
 (let (($x6196 (= (stack_s x_0 x_1 x_2 w_1 0 (_ bv1 6)) x_1)))
 (let (($x581 (= (stack_s x_0 x_1 x_2 w_1 0 (_ bv0 6)) x_0)))
 (let (($x6815 (= ?x72 (_ bv3 6))))
 (and $x6815 $x581 $x6196 $x3689 $x5326 $x3709 $x6159 (= (stack_s x_0 x_1 x_2 w_1 1 ?x72) w_1) (= (used_gas_s x_0 x_1 x_2 w_1 1) (+ 3 ?x1909)) $x7777 $x9029 $x7664 $x7022 $x9549 $x6147 (= ?x2597 (+ 3 (used_gas_s x_0 x_1 x_2 w_1 1))) (= (sc_s 2) ?x154) $x4166 $x1339 $x9930 $x1178 (= (stack_s x_0 x_1 x_2 w_1 3 (bvadd (_ bv60 6) ?x275)) ?x7633) $x7904 (= ?x10422 ?x5324) (= ?x1576 (+ 3 ?x2597)) (= ?x275 (sc_s 2)) $x4351 $x8496 $x8661 $x1842 $x4290 (= ?x4305 ?x7846) $x1887 $x9313 $x4829 $x5154 $x9322 $x10740 (= (used_gas_t x_0 x_1 x_2 w_1 1) (+ 3 ?x3946)) (= (sc_t 1) ?x63) $x2608 $x10213 (= $x1920 (or $x56 (not (bvsle (_ bv0 6) (bvadd (_ bv61 6) ?x63))))) (= (stack_t x_0 x_1 x_2 w_1 2 (sc_t 1)) w_1) (= ?x10861 (+ 3 (used_gas_t x_0 x_1 x_2 w_1 1))) (= (sc_t 2) (bvadd (_ bv1 6) (sc_t 1))) $x5819 $x2322 (= $x903 $x8704) (= (stack_t x_0 x_1 x_2 w_1 3 (bvadd (_ bv63 6) ?x9893)) ?x10806) $x5823 (= ?x9893 (bvadd (_ bv63 6) (sc_t 2))) $x3373 $x6700 $x7783 $x73 $x10421 $x58 $x2129 $x6502 (not (and $x6268 $x1159 $x5423 $x6445))))))))))))))))))))))))))))))))))))))))))))))))))))))))))))))))))))))))))))))
 )
(check-sat)
(get-proof)
